c A SAT instance generated from a 3-CNF formula that had 1000 clauses and 3 variables
p cnf 3 1000
-3 -2 1 0
3 -1 2 0
-3 2 1 0
-2 -1 -3 0
-1 2 3 0
-2 1 3 0
2 1 -3 0
-3 -1 -2 0
2 3 1 0
-1 2 -3 0
-2 1 3 0
-3 -2 1 0
2 -3 -1 0
-3 1 2 0
-2 -1 -3 0
3 -2 -1 0
-1 3 -2 0
-2 1 -3 0
-3 -1 -2 0
3 -1 -2 0
3 -2 -1 0
3 1 -2 0
-2 -1 -3 0
-1 3 2 0
1 -2 3 0
3 1 2 0
-2 1 3 0
2 1 -3 0
-3 -2 -1 0
-1 2 3 0
3 -1 -2 0
-1 -2 3 0
1 -2 3 0
-1 -2 -3 0
2 3 -1 0
-1 2 3 0
1 3 2 0
2 -1 -3 0
3 1 -2 0
2 -1 3 0
-1 -3 2 0
-3 -1 -2 0
-3 -1 -2 0
2 -1 3 0
2 3 -1 0
-3 -2 1 0
-3 2 -1 0
2 1 -3 0
-2 1 3 0
-1 -2 3 0
3 -2 1 0
-3 1 -2 0
-2 -1 3 0
3 2 -1 0
-3 -1 2 0
3 -1 2 0
-1 2 3 0
-3 -2 -1 0
-2 -1 -3 0
-1 -3 -2 0
-1 -3 -2 0
1 -2 3 0
2 1 -3 0
-2 3 1 0
3 -2 1 0
1 3 2 0
-3 1 2 0
2 3 1 0
-1 -3 -2 0
-2 -1 -3 0
1 -3 2 0
-1 -2 3 0
-2 -1 -3 0
-3 1 2 0
1 -2 -3 0
-3 -1 2 0
1 -2 -3 0
3 2 1 0
-3 1 -2 0
2 -1 3 0
-1 -3 2 0
3 -2 1 0
-3 -1 -2 0
-1 2 3 0
-3 -1 -2 0
-3 -2 -1 0
-3 -2 1 0
-3 1 2 0
2 3 -1 0
-3 2 1 0
-2 3 -1 0
3 -2 1 0
1 -3 2 0
1 3 2 0
1 -2 3 0
-2 -3 1 0
-2 -1 3 0
2 -3 -1 0
-3 2 -1 0
-2 3 1 0
1 2 -3 0
-3 1 -2 0
3 1 2 0
3 1 -2 0
-1 -2 3 0
-1 2 3 0
-2 -3 -1 0
-2 3 1 0
-1 -3 -2 0
1 -3 -2 0
2 -3 1 0
-2 -3 1 0
-3 -2 1 0
-1 -2 -3 0
3 1 2 0
3 -2 -1 0
-2 3 -1 0
-2 3 1 0
-1 2 3 0
-2 -3 1 0
3 -2 1 0
-2 -3 -1 0
1 -2 -3 0
2 3 1 0
2 3 -1 0
-2 1 -3 0
1 3 -2 0
-2 -1 3 0
1 3 -2 0
-3 1 -2 0
2 1 3 0
2 -1 -3 0
-3 1 2 0
-1 3 2 0
-2 -3 -1 0
2 -3 -1 0
2 1 -3 0
1 -3 -2 0
2 -1 3 0
1 3 -2 0
1 -2 3 0
-1 2 3 0
-1 -2 3 0
-1 2 -3 0
-3 -2 1 0
-2 -1 3 0
-2 -1 -3 0
-1 -3 2 0
-2 1 -3 0
1 -3 -2 0
2 -1 3 0
1 2 3 0
2 -1 3 0
2 -3 -1 0
3 2 -1 0
3 1 2 0
3 2 1 0
-3 -2 1 0
-1 -3 -2 0
1 3 -2 0
-3 -1 2 0
2 -3 1 0
2 1 -3 0
1 -2 3 0
1 3 -2 0
-2 3 -1 0
1 3 2 0
1 -2 -3 0
3 1 2 0
-3 -1 2 0
-2 3 1 0
2 1 3 0
-3 2 1 0
2 -1 -3 0
1 -3 -2 0
2 1 3 0
1 -2 -3 0
-3 2 1 0
3 -1 2 0
-2 1 -3 0
2 1 3 0
-2 -3 1 0
-3 1 2 0
2 3 -1 0
3 -1 2 0
-2 1 3 0
-2 3 -1 0
2 1 3 0
1 -3 -2 0
1 3 -2 0
3 1 -2 0
-1 -3 2 0
-2 1 3 0
-1 -2 -3 0
2 1 -3 0
1 -2 3 0
-2 3 -1 0
2 -3 1 0
-2 1 -3 0
-3 -2 -1 0
-3 1 2 0
3 1 -2 0
1 -3 -2 0
-3 2 1 0
3 2 -1 0
2 1 -3 0
-2 -3 -1 0
2 3 1 0
-3 -1 -2 0
-2 3 -1 0
3 1 -2 0
1 -2 -3 0
1 2 3 0
-3 2 1 0
-2 1 -3 0
3 2 -1 0
3 -1 -2 0
-2 -3 -1 0
-2 -1 3 0
2 -3 -1 0
-2 -3 1 0
1 3 -2 0
1 2 -3 0
3 1 2 0
2 -3 1 0
-3 2 1 0
1 3 -2 0
2 -3 1 0
2 1 3 0
2 -3 -1 0
-1 3 2 0
-3 -2 -1 0
3 -2 -1 0
2 -3 -1 0
-1 -2 3 0
3 -2 1 0
1 3 2 0
-2 -1 3 0
-2 -3 1 0
-3 1 -2 0
-1 2 3 0
-1 -2 3 0
-2 3 1 0
-3 1 -2 0
3 -2 -1 0
-2 -3 -1 0
-3 1 2 0
-3 1 2 0
-3 -1 -2 0
1 -2 3 0
-1 3 -2 0
2 3 1 0
1 3 2 0
-2 3 1 0
-1 2 -3 0
2 3 -1 0
3 -1 2 0
3 -2 1 0
-3 2 -1 0
-2 1 -3 0
3 2 -1 0
-1 -3 -2 0
1 3 2 0
-1 2 3 0
-3 -1 2 0
-3 -2 -1 0
3 1 -2 0
-1 -3 -2 0
-2 1 3 0
-2 -1 3 0
-2 -1 3 0
-1 2 3 0
2 -1 -3 0
3 -2 1 0
3 2 1 0
-2 -1 3 0
2 -1 -3 0
-1 -3 2 0
2 -1 3 0
-2 1 -3 0
3 -1 -2 0
3 2 1 0
-1 2 -3 0
1 3 2 0
-3 2 -1 0
-2 3 1 0
-3 2 1 0
-2 3 -1 0
-2 1 -3 0
2 1 -3 0
2 -1 3 0
-2 3 1 0
1 -2 -3 0
-3 -1 -2 0
-3 2 1 0
3 -1 -2 0
-2 -1 -3 0
-3 2 -1 0
-2 -3 1 0
1 -3 2 0
-2 -3 1 0
3 1 -2 0
1 -3 -2 0
-1 3 -2 0
1 2 3 0
-2 3 1 0
3 2 1 0
2 3 -1 0
1 2 -3 0
1 -3 -2 0
-3 2 -1 0
1 2 -3 0
3 2 1 0
-1 -3 2 0
-3 2 1 0
2 1 -3 0
3 1 -2 0
3 -1 -2 0
-3 2 -1 0
-3 1 2 0
-2 1 -3 0
2 3 -1 0
-3 1 -2 0
-1 3 2 0
-3 2 -1 0
-3 1 2 0
1 -3 -2 0
-2 -3 1 0
3 -2 1 0
-1 -2 3 0
3 -2 -1 0
1 3 2 0
2 3 1 0
-3 -1 -2 0
1 -2 3 0
-3 1 -2 0
2 -1 -3 0
1 -3 2 0
2 3 -1 0
3 1 2 0
1 -2 3 0
3 1 2 0
1 -3 -2 0
-1 -3 -2 0
2 3 1 0
3 -2 -1 0
2 -1 -3 0
-1 -3 -2 0
1 -2 3 0
2 -3 -1 0
-3 -2 -1 0
-1 2 3 0
1 3 2 0
-3 -2 1 0
2 3 1 0
-2 3 1 0
-2 1 -3 0
2 -3 -1 0
2 -3 -1 0
1 3 2 0
-2 -3 -1 0
-3 1 2 0
-2 3 -1 0
2 1 3 0
3 -2 -1 0
3 -2 1 0
1 -3 -2 0
-2 1 3 0
3 -2 -1 0
-1 -2 3 0
-2 3 -1 0
2 -1 -3 0
-2 -3 -1 0
-3 2 -1 0
-3 -1 -2 0
3 -1 2 0
-3 2 1 0
1 2 3 0
1 -2 3 0
-1 -2 3 0
3 1 -2 0
2 1 -3 0
-2 -1 3 0
-2 1 -3 0
3 -1 2 0
3 -2 -1 0
1 -3 -2 0
-2 -3 1 0
1 3 2 0
-3 2 -1 0
-3 2 -1 0
3 2 1 0
3 1 -2 0
-2 3 -1 0
1 -2 -3 0
-1 3 -2 0
2 1 -3 0
-1 2 -3 0
2 1 -3 0
-1 -2 -3 0
-2 -1 -3 0
-3 -1 2 0
1 -3 2 0
3 -2 1 0
3 2 -1 0
1 -3 2 0
2 3 -1 0
-2 1 -3 0
3 1 -2 0
-2 -1 3 0
-2 1 3 0
-1 2 3 0
-1 2 3 0
3 -2 -1 0
2 1 3 0
1 2 -3 0
3 1 -2 0
-3 -1 2 0
3 1 2 0
-2 1 -3 0
3 -1 -2 0
3 2 1 0
-2 1 -3 0
-1 -3 2 0
2 -1 -3 0
2 3 1 0
-1 -2 3 0
-3 -2 -1 0
3 1 -2 0
3 -2 1 0
-3 -1 -2 0
-3 -1 2 0
-2 -3 -1 0
2 -1 -3 0
2 -1 3 0
3 2 -1 0
-2 -1 -3 0
3 -1 2 0
3 2 1 0
-3 1 2 0
1 -3 2 0
-3 -1 -2 0
-1 2 3 0
-3 2 -1 0
2 -3 1 0
-2 1 -3 0
-2 3 1 0
3 -1 2 0
-2 1 3 0
-1 2 -3 0
-2 -3 -1 0
-2 -3 1 0
-1 -2 -3 0
-2 3 1 0
-2 1 3 0
2 -3 -1 0
-1 2 -3 0
2 3 1 0
-2 1 -3 0
3 2 1 0
-2 -3 1 0
1 -3 2 0
-3 -1 -2 0
-2 -3 -1 0
1 -2 -3 0
-1 -2 -3 0
-1 -3 2 0
-1 2 -3 0
-1 3 2 0
-2 -1 3 0
1 2 3 0
-1 -3 2 0
1 3 -2 0
-2 -1 -3 0
1 2 3 0
-1 2 -3 0
-2 1 3 0
-2 -3 -1 0
-1 -3 2 0
-2 1 3 0
-3 -1 2 0
-3 -2 1 0
2 1 -3 0
-3 -1 2 0
-1 2 3 0
-2 3 1 0
2 3 -1 0
2 1 3 0
-3 1 2 0
-1 -3 2 0
-3 -2 -1 0
-2 3 1 0
2 -1 3 0
2 3 -1 0
-2 3 1 0
2 3 1 0
3 -2 1 0
-2 -1 3 0
-1 3 2 0
-1 -3 2 0
2 1 3 0
-1 -3 2 0
1 3 2 0
-1 3 2 0
3 -1 -2 0
1 3 2 0
-1 -2 -3 0
2 -1 3 0
-2 -1 -3 0
-2 3 -1 0
2 -1 -3 0
-3 2 1 0
-1 3 -2 0
3 2 -1 0
-1 3 2 0
3 1 2 0
2 3 -1 0
-2 3 1 0
-3 -1 2 0
-2 -1 3 0
-1 -2 -3 0
-3 1 2 0
-3 -2 1 0
-3 -1 -2 0
-1 -2 -3 0
-2 3 1 0
-3 -2 -1 0
-2 -1 3 0
-1 -2 3 0
2 -1 -3 0
1 -3 2 0
-3 1 -2 0
1 -2 -3 0
3 1 2 0
-1 -2 -3 0
-1 -3 -2 0
-3 -1 -2 0
-1 2 3 0
-3 2 1 0
-1 -2 -3 0
-1 -2 3 0
-3 1 -2 0
-3 -2 1 0
3 2 1 0
1 2 -3 0
-2 3 1 0
2 -1 -3 0
1 -2 3 0
-1 3 -2 0
1 2 -3 0
-3 1 2 0
1 2 3 0
3 -2 1 0
-1 3 2 0
-1 2 3 0
2 -3 -1 0
-1 3 -2 0
-3 2 -1 0
2 1 -3 0
1 3 2 0
-3 -2 1 0
2 3 -1 0
-3 2 1 0
3 -2 1 0
3 1 2 0
-2 1 -3 0
-2 -1 3 0
-3 -2 1 0
3 -2 -1 0
-1 2 3 0
2 1 3 0
1 -2 -3 0
1 -3 -2 0
1 3 -2 0
2 -1 3 0
-2 -1 3 0
-3 -1 2 0
1 -3 2 0
3 2 1 0
2 3 -1 0
1 2 3 0
2 -1 3 0
3 1 2 0
3 -2 -1 0
-2 3 1 0
1 3 -2 0
1 2 3 0
2 3 1 0
3 2 1 0
1 -3 2 0
1 2 3 0
-2 1 3 0
2 -3 1 0
-2 1 3 0
3 -2 -1 0
1 -3 -2 0
1 2 3 0
-2 -3 -1 0
1 -3 -2 0
-1 -3 2 0
1 -3 2 0
-2 1 3 0
-1 2 3 0
-2 3 -1 0
-2 -3 1 0
-1 -3 2 0
2 1 3 0
-1 -3 -2 0
2 -1 -3 0
-3 -1 2 0
1 3 2 0
-3 -2 -1 0
-3 -1 -2 0
1 2 -3 0
1 -3 2 0
-3 -2 1 0
-2 -1 -3 0
-2 3 1 0
2 3 1 0
3 2 -1 0
3 -2 1 0
-1 -2 -3 0
3 1 -2 0
2 -3 -1 0
-3 1 2 0
3 -1 2 0
1 2 -3 0
3 -1 -2 0
-1 3 -2 0
-1 3 -2 0
1 2 -3 0
3 1 2 0
-1 -2 -3 0
3 2 -1 0
-1 3 -2 0
3 -1 2 0
1 2 3 0
2 1 -3 0
-1 -2 -3 0
-1 -2 -3 0
-2 -3 1 0
-2 1 3 0
2 -3 1 0
-1 2 3 0
2 1 3 0
-1 2 3 0
-3 -1 2 0
-3 2 1 0
1 -3 -2 0
3 -2 -1 0
1 3 -2 0
-3 -2 1 0
-1 -2 -3 0
1 3 -2 0
-1 3 -2 0
3 -1 2 0
-3 -1 -2 0
-3 2 -1 0
-2 1 3 0
-1 -3 2 0
-3 -1 2 0
-2 3 1 0
-1 -2 -3 0
1 -3 -2 0
-3 1 -2 0
1 -3 -2 0
3 2 -1 0
-3 -2 -1 0
-2 3 -1 0
1 -3 2 0
1 -3 -2 0
-1 2 3 0
-3 -1 -2 0
3 1 -2 0
2 -3 1 0
-2 1 3 0
1 -2 3 0
3 1 2 0
3 -1 -2 0
-2 -1 3 0
-2 3 1 0
1 3 2 0
-2 -1 3 0
3 2 -1 0
1 -2 -3 0
3 1 2 0
-3 -1 2 0
-3 -1 2 0
-2 -3 1 0
3 -2 1 0
3 -2 -1 0
-2 3 -1 0
1 2 3 0
2 3 -1 0
-2 3 -1 0
1 -2 -3 0
3 2 1 0
2 -3 -1 0
1 -3 -2 0
1 2 -3 0
-2 -3 -1 0
-3 2 1 0
2 3 1 0
-1 -3 -2 0
1 3 2 0
-1 -2 -3 0
2 -3 1 0
3 1 2 0
-1 -3 2 0
-2 -1 -3 0
2 -1 3 0
-3 2 -1 0
-2 -3 -1 0
3 -1 -2 0
3 -2 1 0
2 1 -3 0
-2 3 1 0
-1 -2 -3 0
-1 3 -2 0
-3 -1 2 0
-3 1 2 0
1 -3 -2 0
2 -3 1 0
-3 -2 -1 0
-3 -2 1 0
-1 2 3 0
2 -3 -1 0
3 -1 2 0
3 -1 -2 0
-1 3 2 0
1 -2 3 0
1 2 -3 0
-1 -2 -3 0
-2 3 -1 0
-1 -3 -2 0
3 -1 2 0
2 1 -3 0
-3 2 1 0
-1 -3 -2 0
1 -2 3 0
-1 3 2 0
1 3 -2 0
3 1 -2 0
2 -3 1 0
3 2 1 0
-2 3 -1 0
-2 3 -1 0
2 -1 -3 0
3 -2 1 0
-2 3 -1 0
-3 -2 -1 0
1 -3 2 0
-3 -1 -2 0
-3 -1 2 0
3 -1 -2 0
2 3 -1 0
3 2 -1 0
2 1 3 0
1 -2 -3 0
-3 -2 -1 0
-3 2 1 0
1 -3 -2 0
-3 2 1 0
2 1 -3 0
-2 -1 -3 0
-2 -3 1 0
1 -2 3 0
2 -3 -1 0
-3 2 1 0
3 -1 2 0
2 -3 -1 0
-3 2 1 0
1 -2 -3 0
3 -1 -2 0
2 1 3 0
-2 -1 -3 0
-3 -2 -1 0
-1 3 2 0
2 -3 -1 0
-2 1 -3 0
-2 1 3 0
-1 -3 2 0
1 2 -3 0
2 -1 3 0
-2 -3 -1 0
3 -2 -1 0
-1 3 -2 0
1 -3 -2 0
1 2 -3 0
-2 -1 3 0
3 2 -1 0
-1 -2 -3 0
1 -2 -3 0
3 -2 1 0
-3 1 2 0
-3 -1 2 0
3 1 -2 0
-1 3 2 0
-1 -3 -2 0
-1 2 3 0
-1 2 -3 0
3 1 2 0
2 -3 -1 0
3 -1 2 0
-1 -2 3 0
1 -2 -3 0
3 -2 -1 0
-1 -2 3 0
-3 -1 -2 0
-1 -2 -3 0
3 -2 -1 0
-3 -1 -2 0
1 -3 2 0
1 3 -2 0
-3 -1 2 0
2 -3 -1 0
1 3 2 0
1 2 -3 0
-2 3 -1 0
2 -3 1 0
-2 -3 1 0
-1 -3 -2 0
-1 2 3 0
-2 1 3 0
-2 -3 -1 0
-2 -1 3 0
-1 -3 2 0
-2 1 -3 0
-2 3 1 0
1 3 2 0
-1 -2 3 0
3 1 -2 0
-1 2 -3 0
-1 2 3 0
2 -3 -1 0
3 -2 -1 0
3 -2 1 0
3 2 -1 0
-2 3 1 0
1 2 -3 0
2 -1 -3 0
-2 -1 3 0
2 -3 -1 0
-2 3 1 0
2 -3 1 0
1 2 3 0
-2 -3 1 0
-1 2 -3 0
-1 -3 2 0
-1 -3 -2 0
3 -2 -1 0
-3 -1 -2 0
-1 2 3 0
-2 1 3 0
3 -2 1 0
-3 1 -2 0
-3 -2 1 0
2 1 -3 0
-3 -1 2 0
-2 -3 1 0
-1 3 -2 0
1 -2 -3 0
2 1 -3 0
2 1 -3 0
3 -2 -1 0
-3 -2 1 0
1 3 -2 0
-3 -1 2 0
-2 3 1 0
2 -1 3 0
-3 1 -2 0
3 1 2 0
2 -3 1 0
-1 2 -3 0
3 1 -2 0
-2 -3 -1 0
-2 -3 1 0
-3 -2 1 0
-2 -3 -1 0
1 2 -3 0
-3 -2 1 0
1 3 -2 0
-1 -2 3 0
-3 2 1 0
-3 -1 -2 0
1 -2 -3 0
3 2 1 0
2 -1 3 0
1 -2 3 0
-1 -2 -3 0
1 -2 -3 0
1 -2 3 0
-2 -1 -3 0
1 2 3 0
-2 -3 -1 0
-2 1 3 0
2 1 3 0
-2 1 3 0
-3 -2 -1 0
2 1 3 0
-3 -2 -1 0
-1 -3 -2 0
3 -2 1 0
-1 2 -3 0
2 3 1 0
-2 1 3 0
-1 3 2 0
-1 2 -3 0
2 -1 3 0
-1 -3 -2 0
1 -3 2 0
-2 -3 1 0
-1 -3 -2 0
-2 1 -3 0
1 -2 3 0
-3 -1 2 0
-2 1 3 0
1 -2 -3 0
-3 -2 -1 0
3 2 -1 0
1 -3 -2 0
3 2 -1 0
-2 1 -3 0
-3 2 -1 0
-1 -3 2 0
3 2 1 0
-1 -3 2 0
-2 1 3 0
-3 1 -2 0
3 2 1 0
-3 -1 2 0
3 2 1 0
3 1 -2 0
-3 -2 -1 0
-2 -1 3 0
-3 1 -2 0
-1 2 3 0
1 3 2 0
-3 -1 -2 0
2 -3 -1 0
-1 -3 -2 0
-3 1 -2 0
2 1 -3 0
3 -2 -1 0
-1 2 -3 0
2 3 1 0
-3 1 -2 0
-1 2 3 0
-2 -3 -1 0
2 3 -1 0
-3 2 1 0
2 3 1 0
1 3 2 0
-1 2 3 0
3 1 -2 0
2 3 1 0
-1 -3 2 0
3 -1 -2 0
1 -3 -2 0
1 -3 -2 0
2 3 1 0
2 1 3 0
1 -2 3 0
3 1 2 0
2 -3 -1 0
1 3 2 0
3 -1 2 0
-1 -3 -2 0
1 2 -3 0
1 -3 2 0
3 -1 -2 0
-3 -1 2 0
-1 3 -2 0
3 -1 2 0
3 -1 -2 0
2 -1 3 0
-1 -3 2 0
3 1 -2 0
3 -1 2 0
-3 -1 2 0
2 -1 -3 0
1 -3 2 0
-1 2 3 0
1 -2 3 0
1 2 -3 0
-3 -2 -1 0
2 3 -1 0
-2 -1 3 0
-3 -1 2 0
1 -2 -3 0
3 1 -2 0
1 -2 3 0
1 2 3 0
-1 -3 2 0
-1 2 -3 0
-2 1 -3 0
2 -3 1 0
-1 3 -2 0
-3 -1 2 0
3 2 -1 0
